2
1000 3
51
259 1 1
388 1 1
261 1 1
262 1 1
449 1 1
265 1 1
394 1 1
269 1 1
400 1 1
273 1 1
274 1 1
275 1 2
276 1 3
405 1 1
278 1 1
279 1 1
281 1 1
284 1 2
287 1 1
292 1 1
424 1 1
297 1 1
427 1 1
300 1 1
304 1 1
310 1 1
317 1 1
321 1 1
322 1 2
451 1 1
328 1 1
450 1 1
337 1 1
339 1 1
471 1 1
344 1 1
485 1 1
464 1 1
355 1 1
357 1 1
380 1 1
365 1 1
368 1 1
369 1 1
498 1 1
403 1 1
374 1 2
375 1 1
250 1 3
252 1 2
253 1 1
